p edge 75 1110
e 1 3
e 1 4
e 1 6
e 1 9
e 1 11
e 1 15
e 1 17
e 1 21
e 1 22
e 1 23
e 1 27
e 1 33
e 1 35
e 1 37
e 1 39
e 1 42
e 1 46
e 1 47
e 1 51
e 1 55
e 1 56
e 1 57
e 1 62
e 1 67
e 1 68
e 1 69
e 1 70
e 1 71
e 1 72
e 1 73
e 1 74
e 2 4
e 2 6
e 2 7
e 2 8
e 2 10
e 2 14
e 2 15
e 2 17
e 2 20
e 2 21
e 2 23
e 2 27
e 2 28
e 2 30
e 2 31
e 2 34
e 2 37
e 2 38
e 2 39
e 2 40
e 2 41
e 2 43
e 2 47
e 2 49
e 2 52
e 2 55
e 2 63
e 2 64
e 2 66
e 2 71
e 3 4
e 3 18
e 3 19
e 3 21
e 3 23
e 3 27
e 3 28
e 3 29
e 3 33
e 3 41
e 3 43
e 3 46
e 3 47
e 3 48
e 3 51
e 3 55
e 3 58
e 3 60
e 3 61
e 3 63
e 3 67
e 3 69
e 3 70
e 3 72
e 3 75
e 4 6
e 4 12
e 4 13
e 4 14
e 4 16
e 4 22
e 4 24
e 4 28
e 4 38
e 4 39
e 4 43
e 4 60
e 4 62
e 4 64
e 4 68
e 4 69
e 4 73
e 5 10
e 5 11
e 5 12
e 5 16
e 5 23
e 5 24
e 5 33
e 5 36
e 5 37
e 5 38
e 5 40
e 5 46
e 5 47
e 5 50
e 5 54
e 5 56
e 5 59
e 5 63
e 5 65
e 5 66
e 5 70
e 5 71
e 5 74
e 5 75
e 6 7
e 6 8
e 6 10
e 6 14
e 6 15
e 6 19
e 6 20
e 6 29
e 6 33
e 6 34
e 6 36
e 6 38
e 6 39
e 6 40
e 6 43
e 6 50
e 6 51
e 6 53
e 6 55
e 6 57
e 6 58
e 6 60
e 6 63
e 6 69
e 6 71
e 7 8
e 7 10
e 7 11
e 7 12
e 7 18
e 7 19
e 7 20
e 7 23
e 7 24
e 7 25
e 7 26
e 7 30
e 7 33
e 7 36
e 7 37
e 7 38
e 7 42
e 7 43
e 7 44
e 7 47
e 7 48
e 7 51
e 7 57
e 7 58
e 7 59
e 7 60
e 7 62
e 7 63
e 7 66
e 7 67
e 7 70
e 7 72
e 8 9
e 8 10
e 8 13
e 8 19
e 8 23
e 8 25
e 8 26
e 8 29
e 8 33
e 8 35
e 8 36
e 8 37
e 8 38
e 8 39
e 8 40
e 8 42
e 8 43
e 8 51
e 8 53
e 8 54
e 8 55
e 8 56
e 8 62
e 8 66
e 8 67
e 8 69
e 8 71
e 8 72
e 8 75
e 9 10
e 9 11
e 9 15
e 9 16
e 9 17
e 9 18
e 9 20
e 9 21
e 9 23
e 9 26
e 9 28
e 9 30
e 9 31
e 9 33
e 9 34
e 9 36
e 9 42
e 9 44
e 9 45
e 9 49
e 9 51
e 9 55
e 9 56
e 9 60
e 9 61
e 9 67
e 9 68
e 9 69
e 9 74
e 10 18
e 10 21
e 10 22
e 10 23
e 10 24
e 10 26
e 10 27
e 10 28
e 10 30
e 10 31
e 10 33
e 10 36
e 10 37
e 10 42
e 10 43
e 10 46
e 10 50
e 10 51
e 10 52
e 10 56
e 10 57
e 10 71
e 10 72
e 11 13
e 11 14
e 11 17
e 11 20
e 11 21
e 11 23
e 11 25
e 11 27
e 11 28
e 11 29
e 11 32
e 11 35
e 11 36
e 11 38
e 11 43
e 11 45
e 11 46
e 11 51
e 11 52
e 11 53
e 11 59
e 11 61
e 11 62
e 11 63
e 11 65
e 11 66
e 11 67
e 11 68
e 11 69
e 11 71
e 11 73
e 11 74
e 11 75
e 12 13
e 12 15
e 12 18
e 12 19
e 12 22
e 12 24
e 12 25
e 12 26
e 12 28
e 12 31
e 12 33
e 12 35
e 12 38
e 12 39
e 12 44
e 12 50
e 12 54
e 12 57
e 12 60
e 12 64
e 12 65
e 12 66
e 12 67
e 12 68
e 12 69
e 12 70
e 13 15
e 13 16
e 13 17
e 13 18
e 13 19
e 13 20
e 13 21
e 13 23
e 13 25
e 13 26
e 13 28
e 13 31
e 13 33
e 13 35
e 13 37
e 13 38
e 13 39
e 13 42
e 13 44
e 13 46
e 13 47
e 13 49
e 13 50
e 13 51
e 13 54
e 13 55
e 13 58
e 13 61
e 13 63
e 13 64
e 13 65
e 13 71
e 13 73
e 13 74
e 13 75
e 14 15
e 14 16
e 14 22
e 14 25
e 14 26
e 14 28
e 14 29
e 14 33
e 14 40
e 14 41
e 14 43
e 14 44
e 14 46
e 14 48
e 14 50
e 14 58
e 14 59
e 14 62
e 14 63
e 14 64
e 14 65
e 14 66
e 14 68
e 14 69
e 14 72
e 14 74
e 15 17
e 15 20
e 15 28
e 15 29
e 15 30
e 15 32
e 15 33
e 15 35
e 15 36
e 15 39
e 15 40
e 15 41
e 15 45
e 15 47
e 15 51
e 15 54
e 15 55
e 15 58
e 15 62
e 15 63
e 15 64
e 15 65
e 15 68
e 15 69
e 15 70
e 15 72
e 15 73
e 16 18
e 16 22
e 16 23
e 16 25
e 16 28
e 16 29
e 16 31
e 16 34
e 16 35
e 16 36
e 16 37
e 16 38
e 16 44
e 16 45
e 16 47
e 16 49
e 16 52
e 16 53
e 16 56
e 16 57
e 16 59
e 16 60
e 16 61
e 16 63
e 16 64
e 16 68
e 16 70
e 16 71
e 16 72
e 16 74
e 17 23
e 17 25
e 17 29
e 17 30
e 17 31
e 17 34
e 17 35
e 17 40
e 17 42
e 17 45
e 17 47
e 17 51
e 17 57
e 17 58
e 17 59
e 17 62
e 17 64
e 17 65
e 17 69
e 17 73
e 17 74
e 18 19
e 18 20
e 18 21
e 18 23
e 18 30
e 18 31
e 18 32
e 18 33
e 18 39
e 18 42
e 18 43
e 18 46
e 18 48
e 18 53
e 18 56
e 18 57
e 18 62
e 18 63
e 18 64
e 18 65
e 18 71
e 18 73
e 18 75
e 19 20
e 19 23
e 19 24
e 19 28
e 19 29
e 19 33
e 19 35
e 19 36
e 19 39
e 19 41
e 19 43
e 19 44
e 19 48
e 19 51
e 19 54
e 19 55
e 19 56
e 19 57
e 19 60
e 19 67
e 19 68
e 19 69
e 19 74
e 20 22
e 20 23
e 20 24
e 20 29
e 20 30
e 20 33
e 20 34
e 20 35
e 20 38
e 20 41
e 20 51
e 20 57
e 20 58
e 20 59
e 20 61
e 20 62
e 20 63
e 20 67
e 20 68
e 20 69
e 20 70
e 20 71
e 21 24
e 21 25
e 21 29
e 21 30
e 21 37
e 21 40
e 21 42
e 21 48
e 21 49
e 21 54
e 21 55
e 21 56
e 21 57
e 21 62
e 21 66
e 21 68
e 21 71
e 21 75
e 22 24
e 22 28
e 22 31
e 22 32
e 22 34
e 22 35
e 22 36
e 22 37
e 22 40
e 22 44
e 22 45
e 22 47
e 22 53
e 22 60
e 22 61
e 22 62
e 22 66
e 22 67
e 22 68
e 22 70
e 22 71
e 22 72
e 22 74
e 23 27
e 23 33
e 23 36
e 23 40
e 23 41
e 23 43
e 23 44
e 23 45
e 23 46
e 23 49
e 23 50
e 23 51
e 23 53
e 23 56
e 23 58
e 23 63
e 23 66
e 23 67
e 23 70
e 23 71
e 23 73
e 24 27
e 24 31
e 24 33
e 24 35
e 24 37
e 24 42
e 24 48
e 24 50
e 24 53
e 24 54
e 24 55
e 24 57
e 24 60
e 24 61
e 24 64
e 24 68
e 24 74
e 25 29
e 25 30
e 25 35
e 25 37
e 25 40
e 25 46
e 25 50
e 25 51
e 25 52
e 25 53
e 25 55
e 25 58
e 25 60
e 25 64
e 25 66
e 25 68
e 25 70
e 25 71
e 25 73
e 25 74
e 25 75
e 26 29
e 26 30
e 26 31
e 26 34
e 26 36
e 26 37
e 26 46
e 26 49
e 26 51
e 26 55
e 26 56
e 26 60
e 26 61
e 26 63
e 26 66
e 26 69
e 26 74
e 27 28
e 27 30
e 27 32
e 27 33
e 27 37
e 27 39
e 27 41
e 27 43
e 27 50
e 27 54
e 27 57
e 27 61
e 27 71
e 27 72
e 28 29
e 28 32
e 28 34
e 28 35
e 28 36
e 28 38
e 28 39
e 28 40
e 28 41
e 28 43
e 28 48
e 28 49
e 28 54
e 28 55
e 28 56
e 28 58
e 28 59
e 28 60
e 28 61
e 28 62
e 28 63
e 28 67
e 28 70
e 28 72
e 28 73
e 28 74
e 28 75
e 29 33
e 29 35
e 29 44
e 29 47
e 29 51
e 29 53
e 29 56
e 29 58
e 29 66
e 29 70
e 29 71
e 29 72
e 29 73
e 29 75
e 30 31
e 30 33
e 30 34
e 30 40
e 30 41
e 30 42
e 30 43
e 30 45
e 30 47
e 30 48
e 30 50
e 30 51
e 30 58
e 30 61
e 30 63
e 30 71
e 30 72
e 30 73
e 31 34
e 31 35
e 31 39
e 31 42
e 31 44
e 31 45
e 31 54
e 31 55
e 31 57
e 31 59
e 31 61
e 31 63
e 31 67
e 31 69
e 31 72
e 31 75
e 32 36
e 32 39
e 32 40
e 32 43
e 32 44
e 32 46
e 32 48
e 32 49
e 32 51
e 32 54
e 32 56
e 32 63
e 32 64
e 32 65
e 32 67
e 32 68
e 32 70
e 32 71
e 32 72
e 32 73
e 32 74
e 33 38
e 33 40
e 33 42
e 33 45
e 33 46
e 33 47
e 33 49
e 33 52
e 33 53
e 33 55
e 33 59
e 33 61
e 33 71
e 33 72
e 33 73
e 33 74
e 34 35
e 34 41
e 34 42
e 34 43
e 34 48
e 34 49
e 34 55
e 34 58
e 34 59
e 34 62
e 34 64
e 34 71
e 34 72
e 35 36
e 35 37
e 35 41
e 35 43
e 35 45
e 35 46
e 35 47
e 35 48
e 35 50
e 35 51
e 35 52
e 35 53
e 35 55
e 35 57
e 35 58
e 35 59
e 35 61
e 35 62
e 35 65
e 35 67
e 35 68
e 35 69
e 35 73
e 36 37
e 36 39
e 36 40
e 36 42
e 36 45
e 36 46
e 36 48
e 36 51
e 36 52
e 36 54
e 36 57
e 36 60
e 36 61
e 36 62
e 36 65
e 36 66
e 36 69
e 36 72
e 36 73
e 36 74
e 37 38
e 37 39
e 37 40
e 37 42
e 37 46
e 37 48
e 37 49
e 37 50
e 37 52
e 37 53
e 37 54
e 37 56
e 37 59
e 37 72
e 37 73
e 37 74
e 38 39
e 38 41
e 38 48
e 38 49
e 38 50
e 38 52
e 38 57
e 38 65
e 38 66
e 38 73
e 38 74
e 38 75
e 39 40
e 39 41
e 39 42
e 39 44
e 39 47
e 39 51
e 39 54
e 39 58
e 39 60
e 39 62
e 39 63
e 39 66
e 39 68
e 39 72
e 39 73
e 40 43
e 40 45
e 40 46
e 40 47
e 40 50
e 40 51
e 40 52
e 40 53
e 40 54
e 40 62
e 40 63
e 40 72
e 41 42
e 41 44
e 41 45
e 41 55
e 41 56
e 41 57
e 41 59
e 41 64
e 41 65
e 41 66
e 41 67
e 41 71
e 41 75
e 42 47
e 42 48
e 42 49
e 42 51
e 42 54
e 42 58
e 42 59
e 42 60
e 42 61
e 42 67
e 42 70
e 42 71
e 43 45
e 43 48
e 43 50
e 43 53
e 43 54
e 43 57
e 43 63
e 43 71
e 43 72
e 43 75
e 44 48
e 44 52
e 44 53
e 44 54
e 44 60
e 44 68
e 44 69
e 44 74
e 45 46
e 45 48
e 45 50
e 45 51
e 45 53
e 45 54
e 45 55
e 45 59
e 45 60
e 45 63
e 45 66
e 45 67
e 45 71
e 45 73
e 45 74
e 45 75
e 46 48
e 46 50
e 46 51
e 46 57
e 46 60
e 46 62
e 46 63
e 46 64
e 46 67
e 46 68
e 46 69
e 46 70
e 46 72
e 46 74
e 46 75
e 47 50
e 47 51
e 47 54
e 47 65
e 47 67
e 47 74
e 47 75
e 48 51
e 48 55
e 48 56
e 48 61
e 48 62
e 48 65
e 48 66
e 48 73
e 48 74
e 49 54
e 49 57
e 49 62
e 49 67
e 49 68
e 49 72
e 49 74
e 50 51
e 50 56
e 50 60
e 50 66
e 50 67
e 50 69
e 50 72
e 50 73
e 51 53
e 51 54
e 51 55
e 51 56
e 51 57
e 51 65
e 51 66
e 51 67
e 51 69
e 51 72
e 51 75
e 52 58
e 52 62
e 52 64
e 52 65
e 52 66
e 52 68
e 53 54
e 53 55
e 53 58
e 53 60
e 53 61
e 53 63
e 53 64
e 53 68
e 53 69
e 53 74
e 54 55
e 54 56
e 54 59
e 54 61
e 54 64
e 54 66
e 54 67
e 54 68
e 54 72
e 54 74
e 55 60
e 55 66
e 55 67
e 55 68
e 55 69
e 55 71
e 56 59
e 56 62
e 56 68
e 56 71
e 56 73
e 56 75
e 57 58
e 57 59
e 57 63
e 57 64
e 57 65
e 57 67
e 57 68
e 57 70
e 57 73
e 57 74
e 57 75
e 58 59
e 58 66
e 58 69
e 58 70
e 58 72
e 58 75
e 59 62
e 59 64
e 59 67
e 59 68
e 59 70
e 59 71
e 59 72
e 60 66
e 60 67
e 60 68
e 60 71
e 61 63
e 61 68
e 61 70
e 61 72
e 61 74
e 62 71
e 62 75
e 63 64
e 63 65
e 63 66
e 63 69
e 63 70
e 63 73
e 63 75
e 64 66
e 64 69
e 64 70
e 64 73
e 64 74
e 65 67
e 65 71
e 65 72
e 65 75
e 66 68
e 66 70
e 66 72
e 66 73
e 66 75
e 67 68
e 67 69
e 67 72
e 67 74
e 67 75
e 68 69
e 68 70
e 68 72
e 69 70
e 69 72
e 70 75
e 71 72
e 71 73
e 71 74
e 72 73
